NAME : ts225.tsp
TYPE : TOUR
DIMENSION : 225
TOUR_LENGTH : 136038.5712007805
TOUR_SECTION
1
2
3
4
5
6
7
8
9
10
11
12
13
14
15
16
17
18
19
20
21
22
23
24
25
146
147
148
149
150
50
49
48
47
46
45
44
166
167
168
169
170
69
191
192
193
194
195
94
95
96
97
98
99
100
200
199
198
197
196
75
175
174
173
172
171
73
74
72
71
70
68
67
66
65
64
63
186
187
188
189
190
88
87
86
85
84
83
82
185
184
183
182
181
57
58
59
60
61
62
165
164
163
162
161
38
39
40
41
42
43
145
144
143
142
141
136
137
138
139
140
37
36
35
34
33
32
135
134
133
132
131
126
127
128
129
130
26
151
152
153
154
155
51
176
177
178
179
180
76
201
202
203
204
205
101
102
103
104
105
106
107
108
109
110
111
112
113
114
115
116
117
118
119
120
121
122
123
124
125
225
224
223
222
221
216
217
218
219
220
92
93
91
90
89
211
212
213
214
215
210
209
208
207
206
81
80
79
78
77
54
53
52
55
56
160
159
158
157
156
31
30
29
28
27
-1
